SAT
-69 44 93 -75 100 82 9 54 -1 89 23 80 16 -79 -8 78 35 61 26 47 33 76 -10 77 66 -72 60 -24 -99 29 39 -94 -31 87 -45 55 -48 -20 -2 -27 43 -53 -38 -46 86 -7 -22 -96 63 -98 -52 73 59 56 -64 -83 6 -84 34 42 58 81 -37 -25 95 65 -62 -3 -49 -14 85 11 -21 -74 32 -18 -17 -12 13 -92 71 -88 4 -40 -41 68 50 51 -57 67 19 36 -5 -30 -91 15 28 -90 70 97 0
